NAME : B-n63-k10.837067.tour
COMMENT : Length = 837067
COMMENT : Found by LKH [Keld Helsgaun] Sun Dec 17 19:11:39 2017
TYPE : TOUR
DIMENSION : 72
TOUR_SECTION
1
19
51
2
28
68
11
43
62
42
15
59
55
13
70
38
58
39
54
24
12
18
44
25
67
32
50
57
47
60
31
9
72
45
17
41
4
5
64
23
40
63
3
22
52
26
66
35
53
20
34
27
36
7
69
49
61
6
16
48
10
71
46
21
37
8
65
29
30
33
14
56
-1
EOF
